(declare-const v0 Bool)
(declare-const v1 Bool)
(declare-const v2 Bool)
(declare-const v3 Bool)
(declare-const v4 Bool)
(assert (edge (or v0 v1) (or v0 v1)))
(assert (edge (not v1) (or v3 (not v0) (not v2))))
(assert (edge (not v0) true))
(assert (edge (or v2 (not v4) (not v0)) (or v2 (not v3))))
(assert (edge v1 (or v0 v4)))
(assert (edge (or (not v4) (not v2)) (or (not v1) (not v3))))
(assert (edge (or v0 (not v2)) v1))
(assert (edge true (or (not v2) (not v3))))
(assert (edge (or v1 (not v3) (not v4)) (or v0 v1)))
(assert (edge (or (not v3) v4) (not v2)))
(assert (edge (or (not v3) (not v0) (not v2)) (not v4)))
(assert (edge true v0))
(assert (edge (or v3 (not v0) (not v2)) (or v3 (not v2))))
(assert (edge (not v3) (or (not v1) (not v0) (not v2))))
(assert (edge (or v4 (not v0)) true))
(assert (edge (or v1 v3) v0))
(assert (edge (or v1 (not v4) (not v2)) (not v0)))
(assert (edge (or v2 (not v4)) (or v2 (not v1))))
(assert (edge (not v1) (or (not v3) v4 (not v0))))
(assert (edge (not v3) (not v4)))
(assert (not (edge (not v3) (not v3))))